NAME : a280 (modified to 9)
COMMENT : drilling problem (Ludwig)
TYPE : TSP
DIMENSION: 11
EDGE_WEIGHT_TYPE : EUC_2D
NODE_COORD_SECTION
  1 673 145
2 223 10
3 553 142
4 401 841
5 308 164
6 760 445
7 757 371
8 726 126
9 689 188
10 111 204
11 546 260
EOF
